language ESSENCE' 1.0

letting n_warehouses be 3
letting n_stores be 2
letting opencost_FunctionAsRelation_RelationAsSet_Explicit_1 be [1, 2, 3; int(1..3)]
letting opencost_FunctionAsRelation_RelationAsSet_Explicit_2 be [30, 10, 40; int(1..3)]
letting cost_FunctionAsRelation_RelationAsSet_Explicit_1_1 be [1, 1, 1, 2, 2, 2; int(1..6)]
letting cost_FunctionAsRelation_RelationAsSet_Explicit_1_2 be [1, 2, 3, 1, 2, 3; int(1..6)]
letting cost_FunctionAsRelation_RelationAsSet_Explicit_2 be [10, 7, 8, 5, 3, 9; int(1..6)]
letting capacity_FunctionAsRelation_RelationAsSet_Explicit_1 be [1, 2, 3; int(1..3)]
letting capacity_FunctionAsRelation_RelationAsSet_Explicit_2 be [20, 10, 10; int(1..3)]
letting fin1 be 3
letting fin2 be 20
letting fin3 be 3
letting fin4 be 40
letting fin5 be 6
letting fin6 be 10
